
  12    4
  10   10   10   10

   0   0   0   0   0   5 2 3 4 5 11 
   7  10  10  10  10   4 10 9 8 6 
   2  10  10  10  10   3 8 7 6 
  10  10  10  10  10   1 7 
   3  10  10  10  10   1 6 
   3  10  10  10  10   1 12
   8  10  10  10  10   1 12
   7  10  10  10  10   1 12
  10  10  10  10  10   1 12
   4  10  10  10  10   1 12
   6  10  10  10  10   1 12
   0   0   0   0   0   0 
